%%
% Autogenerated by /opt/prj/battleships-ai/src/server/solver.py, instance 2 8x8 [1] #4 <n3zw>
% Source: https://www.puzzle-battleships.com/?size=2
%%

size = 8;
hints_num = 1;
hints = [| 2, 7 |];
ships_num = 9;

constr_rows = [3, 1, 5, 1, 3, 4, 0, 2];
constr_cols = [3, 3, 2, 0, 6, 0, 3, 2];

given_ships = [|
<>, <>, <>, <>, 1, |
<>, <>, <>, <>, 1, |
<>, <>, <>, <>, 1, |
<>, <>, <>, <>, 2, |
<>, <>, <>, <>, 2, |
<>, <>, <>, <>, 2, |
<>, <>, <>, <>, 3, |
<>, <>, <>, <>, 3, |
<>, <>, <>, <>, 4  |];

